NAME: tsp45_26
COMMENT: 45-tsp problem (Padberg/Rinaldi)
TYPE: TSP
DIMENSION: 45
EDGE_WEIGHT_TYPE : EUC_2D
NODE_COORD_SECTION
1 30 38
2 21 8
3 11 36
4 6 0
5 24 33
6 6 8
7 20 7
8 37 22
9 12 36
10 36 16
11 40 15
12 7 10
13 29 2
14 6 15
15 15 31
16 28 34
17 29 1
18 2 27
19 33 12
20 17 14
21 21 29
22 32 24
23 39 38
24 28 34
25 12 17
26 35 7
27 10 35
28 10 37
29 36 35
30 31 3
31 22 18
32 34 39
33 22 34
34 18 35
35 21 4
36 37 1
37 30 27
38 9 31
39 3 28
40 31 22
41 31 33
42 8 19
43 20 24
44 9 33
45 34 29
